c colouring generated by benchmark framework
p edge 96 1368
v 1 1
v 2 10
v 3 4
v 4 9
v 5 6
v 6 11
v 7 8
v 8 3
v 9 0
v 10 7
v 11 2
v 12 5
v 13 8
v 14 11
v 15 6
v 16 10
v 17 3
v 18 7
v 19 9
v 20 2
v 21 4
v 22 5
v 23 1
v 24 0
v 25 9
v 26 3
v 27 0
v 28 7
v 29 2
v 30 1
v 31 11
v 32 5
v 33 10
v 34 6
v 35 4
v 36 8
v 37 4
v 38 2
v 39 5
v 40 6
v 41 8
v 42 3
v 43 0
v 44 1
v 45 7
v 46 11
v 47 10
v 48 9
v 49 5
v 50 1
v 51 11
v 52 4
v 53 10
v 54 2
v 55 6
v 56 8
v 57 9
v 58 0
v 59 3
v 60 7
v 61 0
v 62 9
v 63 10
v 64 5
v 65 1
v 66 8
v 67 3
v 68 7
v 69 11
v 70 2
v 71 6
v 72 4
v 73 3
v 74 6
v 75 1
v 76 11
v 77 7
v 78 10
v 79 5
v 80 9
v 81 8
v 82 4
v 83 0
v 84 2
v 85 11
v 86 7
v 87 8
v 88 3
v 89 0
v 90 6
v 91 2
v 92 4
v 93 1
v 94 9
v 95 5
v 96 10
